\Generated by Cardinal Operations

Maximize
   10 x_0_0 + 10 x_0_1 + 10 x_0_2 + 10 x_0_3 + 10 x_0_4 + 10 x_0_5 
   + 10 x_0_6 + 10 x_0_7 + 15 x_1_0 + 15 x_1_1 + 15 x_1_2 + 15 x_1_3 
   + 15 x_1_4 + 15 x_1_5 + 15 x_1_6 + 15 x_1_7 + 8 x_2_0 + 8 x_2_1 
   + 8 x_2_2 + 8 x_2_3 + 8 x_2_4 + 8 x_2_5 + 8 x_2_6 + 8 x_2_7 + 12 x_3_0 
   + 12 x_3_1 + 12 x_3_2 + 12 x_3_3 + 12 x_3_4 + 12 x_3_5 + 12 x_3_6 
   + 12 x_3_7 + 20 x_4_0 + 20 x_4_1 + 20 x_4_2 + 20 x_4_3 + 20 x_4_4 
   + 20 x_4_5 + 20 x_4_6 + 20 x_4_7 + 25 x_5_0 + 25 x_5_1 + 25 x_5_2 
   + 25 x_5_3 + 25 x_5_4 + 25 x_5_5 + 25 x_5_6 + 25 x_5_7 + 5 x_6_0 
   + 5 x_6_1 + 5 x_6_2 + 5 x_6_3 + 5 x_6_4 + 5 x_6_5 + 5 x_6_6 + 5 x_6_7 
   + 30 x_7_0 + 30 x_7_1 + 30 x_7_2 + 30 x_7_3 + 30 x_7_4 + 30 x_7_5 
   + 30 x_7_6 + 30 x_7_7 + 18 x_8_0 + 18 x_8_1 + 18 x_8_2 + 18 x_8_3 
   + 18 x_8_4 + 18 x_8_5 + 18 x_8_6 + 18 x_8_7 + 22 x_9_0 + 22 x_9_1 
   + 22 x_9_2 + 22 x_9_3 + 22 x_9_4 + 22 x_9_5 + 22 x_9_6 + 22 x_9_7 
Subject To
 capacity_constraint: 2 x_0_0 + 3 x_1_0 + x_2_0 + 2 x_3_0 + 4 x_4_0 
   + 5 x_5_0 + x_6_0 + 6 x_7_0 + 3 x_8_0 + 4 x_9_0 <= 100
 2 x_0_1 + 3 x_1_1 + x_2_1 + 2 x_3_1 + 4 x_4_1 + 5 x_5_1 + x_6_1 + 6 x_7_1 
   + 3 x_8_1 + 4 x_9_1 <= 150
 2 x_0_2 + 3 x_1_2 + x_2_2 + 2 x_3_2 + 4 x_4_2 + 5 x_5_2 + x_6_2 + 6 x_7_2 
   + 3 x_8_2 + 4 x_9_2 <= 120
 2 x_0_3 + 3 x_1_3 + x_2_3 + 2 x_3_3 + 4 x_4_3 + 5 x_5_3 + x_6_3 + 6 x_7_3 
   + 3 x_8_3 + 4 x_9_3 <= 130
 2 x_0_4 + 3 x_1_4 + x_2_4 + 2 x_3_4 + 4 x_4_4 + 5 x_5_4 + x_6_4 + 6 x_7_4 
   + 3 x_8_4 + 4 x_9_4 <= 90
 2 x_0_5 + 3 x_1_5 + x_2_5 + 2 x_3_5 + 4 x_4_5 + 5 x_5_5 + x_6_5 + 6 x_7_5 
   + 3 x_8_5 + 4 x_9_5 <= 110
 2 x_0_6 + 3 x_1_6 + x_2_6 + 2 x_3_6 + 4 x_4_6 + 5 x_5_6 + x_6_6 + 6 x_7_6 
   + 3 x_8_6 + 4 x_9_6 <= 160
 2 x_0_7 + 3 x_1_7 + x_2_7 + 2 x_3_7 + 4 x_4_7 + 5 x_5_7 + x_6_7 + 6 x_7_7 
   + 3 x_8_7 + 4 x_9_7 <= 140
Generals
 x_0_0  x_0_1  x_0_2  x_0_3  x_0_4  x_0_5  x_0_6  x_0_7  x_1_0  x_1_1  
 x_1_2  x_1_3  x_1_4  x_1_5  x_1_6  x_1_7  x_2_0  x_2_1  x_2_2  x_2_3  
 x_2_4  x_2_5  x_2_6  x_2_7  x_3_0  x_3_1  x_3_2  x_3_3  x_3_4  x_3_5  
 x_3_6  x_3_7  x_4_0  x_4_1  x_4_2  x_4_3  x_4_4  x_4_5  x_4_6  x_4_7  
 x_5_0  x_5_1  x_5_2  x_5_3  x_5_4  x_5_5  x_5_6  x_5_7  x_6_0  x_6_1  
 x_6_2  x_6_3  x_6_4  x_6_5  x_6_6  x_6_7  x_7_0  x_7_1  x_7_2  x_7_3  
 x_7_4  x_7_5  x_7_6  x_7_7  x_8_0  x_8_1  x_8_2  x_8_3  x_8_4  x_8_5  
 x_8_6  x_8_7  x_9_0  x_9_1  x_9_2  x_9_3  x_9_4  x_9_5  x_9_6  x_9_7  
END

